AgPd alloy surface - final state (FS)
1.0
   5.5600000000   0.0000000000   0.0000000000
   2.7800000000   4.8147590000   0.0000000000
   0.0000000000   0.0000000000  25.0000000000
Ag Pd C C H H
2 2 2 0 4 0
Selective dynamics
Cartesian
  0.0000000000   0.0000000000   8.0000000000  F F F
  2.7800000000   1.6049197000  10.2000000000  F F F
  1.3900000000   0.8024598000  12.4000000000  T T T
  4.1700000000   2.4073795000  12.4000000000  T T T
  1.3900000000   0.8024598000  15.0000000000  T T T
  1.3900000000   0.8024598000  16.3400000000  T T T
  0.7700000000   1.3024598000  15.3500000000  T T T
  2.0100000000   0.3024598000  15.3500000000  T T T
  0.7700000000   1.3024598000  16.0900000000  T T T
  2.0100000000   0.3024598000  16.0900000000  T T T
