CO on Ir(111) surface
1.0
   2.7350000000   0.0000000000   0.0000000000
   1.3675000000   2.3682953000   0.0000000000
   0.0000000000   0.0000000000  22.0000000000
Ir C O
4 1 1
Selective dynamics
Cartesian
  0.0000000000   0.0000000000   5.0000000000  T T T
  1.3675000000   0.7894318000   7.2300000000  T T T
  0.0000000000   1.5788635000   9.4600000000  F F F
  1.3675000000   0.7894318000  11.6900000000  F F F
  0.0000000000   0.0000000000   3.1000000000  T T T
  0.0000000000   0.0000000000   1.9570000000  T T T
